20808 100 1100 34 15 24 71 85 9 41 41 30 97 67 24 19 66 99 70 60 14 25 38 57 34 15 91 64 21 52 93 47 14 30 41 25 72 14 34 79 30 39 66 29 33 91 16 37 19 39 69 12 19 50 8 34 41 87 9 91 14 50 57 79 75 50 56 27 84 59 92 81 36 31 11 52 56 16 35 61 86 63 80 46 11 60 96 36 96 78 70 91 47 61 81 14 35 46 21 69 43 93 47 162 122 141 240 268 109 177 176 154 294 230 140 130 230 298 237 217 119 143 171 211 163 122 282 225 133 200 286 189 118 154 176 143 242 121 162 257 154 173 228 150 160 281 125 169 130 173 235 115 130 194 108 162 176 273 109 282 120 196 210 257 248 196 209 147 266 213 283 260 165 155 113 200 207 124 164 218 271 223 259 187 114 217 293 166 292 254 237 282 189 219 260 119 163 188 134 235 180 286 190
